StudentsNr = 10;
InstructorsNr = 65;
DaysNr = 1;
SlotsPerDay = 40;
AvailabilitySlotsLenght = 5;
RoomNr = 1;
ProgrammNr = 2;
DegreeNr = 3;
RolesNr = 1;
CoursesNr = 4;
InstructorsProgramm = [{1, 2}, {1}, {1, 2}, {1, 2}, {1}, {1}, {1}, {1, 2}, {1}, {2}, {1}, {2}, {1, 2}, {2}, {2}, {2}, {1}, {2}, {1}, {1}, {1}, {1, 2}, {2}, {1}, {1}, {2}, {2}, {1}, {1}, {2}, {1, 2}, {2}, {2}, {1, 2}, {1}, {1}, {1}, {2}, {1}, {2}, {2}, {1, 2}, {2}, {1}, {1}, {2}, {2}, {2}, {1}, {2}, {1, 2}, {1}, {1, 2}, {1}, {1, 2}, {2}, {2}, {1}, {1, 2}, {1, 2}, {2}, {1, 2}, {1}, {1, 2}, {1, 2}];
InstructorRolesPerProgramm = [|{1, 4, 6, 8, 9, 11, 19, 22, 29, 31, 34, 36, 42, 45, 49, 54, 58, 59, 60, 62, 64}|{1, 4, 8, 12, 22, 23, 31, 32, 34, 40, 41, 42, 46, 48, 59, 60, 61, 62, 64}|];
InstructorsAvailability = [|0, 0, 1, 1, 1, 1, 1, 1, |1, 0, 1, 1, 0, 1, 1, 1, |0, 1, 1, 1, 0, 0, 0, 0, |0, 1, 1, 1, 1, 1, 1, 1, |0, 1, 1, 0, 0, 0, 0, 1, |1, 0, 0, 1, 1, 1, 1, 1, |0, 1, 1, 1, 1, 1, 1, 1, |0, 1, 1, 1, 1, 1, 1, 1, |0, 1, 1, 1, 1, 1, 1, 1, |1, 0, 0, 1, 1, 1, 1, 0, |0, 1, 1, 1, 0, 1, 1, 1, |1, 1, 1, 1, 1, 1, 1, 1, |0, 1, 1, 1, 0, 1, 1, 1, |0, 1, 0, 1, 1, 1, 1, 1, |1, 1, 1, 1, 1, 1, 0, 0, |0, 0, 1, 1, 1, 1, 1, 1, |0, 1, 1, 1, 1, 0, 1, 1, |0, 1, 0, 1, 1, 0, 1, 1, |0, 1, 1, 1, 1, 1, 1, 1, |0, 1, 1, 1, 1, 1, 0, 0, |0, 1, 1, 1, 1, 0, 1, 1, |0, 0, 1, 0, 0, 1, 1, 1, |0, 1, 0, 1, 0, 0, 1, 1, |0, 1, 1, 1, 1, 1, 1, 1, |0, 0, 1, 1, 1, 1, 1, 0, |0, 1, 1, 1, 1, 1, 1, 1, |0, 1, 1, 1, 1, 1, 0, 1, |1, 1, 1, 1, 1, 1, 0, 1, |1, 1, 1, 1, 0, 0, 1, 1, |0, 1, 0, 0, 0, 1, 1, 0, |0, 1, 1, 1, 1, 1, 1, 1, |0, 0, 1, 1, 1, 1, 1, 1, |0, 0, 1, 1, 0, 0, 0, 0, |0, 0, 0, 1, 1, 1, 1, 1, |0, 1, 1, 1, 1, 1, 0, 1, |0, 1, 1, 1, 1, 1, 0, 0, |1, 1, 1, 1, 1, 1, 1, 1, |0, 0, 0, 1, 1, 1, 1, 1, |0, 1, 1, 1, 1, 1, 1, 1, |1, 1, 1, 1, 1, 1, 1, 1, |1, 1, 1, 0, 1, 1, 1, 1, |1, 1, 1, 1, 1, 0, 0, 1, |1, 1, 1, 1, 1, 1, 1, 1, |1, 1, 1, 1, 1, 1, 1, 1, |0, 0, 1, 1, 1, 1, 1, 1, |0, 0, 1, 1, 0, 0, 1, 1, |0, 0, 1, 1, 1, 1, 1, 0, |0, 1, 0, 1, 1, 1, 0, 1, |0, 1, 1, 1, 1, 1, 1, 1, |0, 1, 1, 0, 1, 1, 1, 1, |1, 1, 0, 1, 1, 1, 1, 1, |0, 1, 1, 1, 1, 1, 1, 1, |1, 1, 1, 1, 1, 1, 1, 1, |1, 1, 1, 1, 1, 1, 0, 0, |0, 1, 1, 1, 1, 1, 1, 0, |0, 1, 1, 0, 1, 1, 1, 1, |1, 1, 1, 1, 1, 1, 1, 1, |0, 1, 1, 1, 1, 1, 0, 1, |0, 1, 1, 1, 1, 1, 1, 1, |0, 1, 0, 0, 1, 0, 1, 1, |1, 1, 1, 1, 1, 1, 1, 1, |1, 1, 0, 0, 0, 0, 0, 1, |0, 1, 1, 1, 1, 1, 0, 0, |1, 1, 0, 1, 1, 0, 0, 1, |0, 1, 1, 1, 1, 1, 1, 1|];
StudentsProgramm = [1, 2, 2, 2, 1, 1, 1, 2, 1, 2];
StudentsDegree = [3, 2, 1, 2, 2, 1, 1, 1, 2, 2];
StudentsSupervisorId = [42, 26, 26, 3, 54, 45, 1, 55, 49, 32];
StudentsCourseIds = [{1, 3, 4}, {1, 2}, {1, 4}, {3, 4}, {2, 4}, {3, 4}, {1, 2}, {3, 4}, {3, 4}, {1, 4}];
StudentsAvailability = [|0, 0, 1, 1, 1, 1, 1, 1, |1, 1, 1, 1, 0, 0, 0, 0, |1, 0, 0, 0, 0, 0, 1, 1, |0, 0, 0, 1, 1, 1, 1, 1, |1, 1, 1, 1, 1, 1, 1, 1, |1, 1, 1, 1, 1, 0, 0, 0, |0, 0, 1, 1, 1, 1, 1, 1, |1, 0, 1, 1, 1, 1, 1, 1, |1, 1, 1, 1, 1, 0, 0, 0, |0, 1, 1, 1, 1, 1, 1, 1|];
TheoryticalMinCard = [0, 1, 0, 0, 0, 0, 0, 0, 0, 0];
CoursesInstructorIds = [{1, 2, 3, 5, 9, 11, 12, 15, 16, 19, 22, 25, 26, 27, 28, 30, 33, 34, 43, 44, 45, 47, 50, 52, 56, 57, 60, 64, 65}, {5, 6, 7, 25, 28, 45, 47, 50}, {13, 25, 26, 29, 38, 40, 53, 56, 59, 63}, {1, 3, 10, 13, 14, 15, 17, 28, 34, 52, 54, 55, 56, 59, 60, 65}];
RolesDemands = [4];
RolesContinuity = [];
ExamLen = [1, 1, 1, 1, 1, 1, 1, 1, 1, 1];
LunchTsMinLen = 0;
LunchStarts = [11..25];
SupervisorAvailable = 0;
OptimalLunchLenght = [3, 0];
OptimalStartTs = [2, 0];
OptimalFinishTs = [1, 40];
MinimizeRooms = 200;
RolesSoftContinuity = [|1|2|];
SameDegreeInRoom = 10;
Mergeability = 1;
